
Log started (V20.1.0.0) Sun Aug  7 20:01:53 2022


Problem 'pp.lp' read.
Read time = 0.00 sec. (0.00 ticks)
Version identifier: 20.1.0.0 | 2020-11-10 | 9bedb6d68
Tried aggregator 1 time.
No LP presolve or aggregator reductions.
Presolve time = 0.00 sec. (0.00 ticks)

Iteration log . . .
Iteration:     1   Dual objective     =             3.000000

Dual simplex - Optimal:  Objective =  4.8181818182e+00
Solution time =    0.00 sec.  Iterations = 2 (0)
Deterministic time = 0.00 ticks  (2.56 ticks/sec)

Version identifier: 20.1.0.0 | 2020-11-10 | 9bedb6d68
Using devex.

Primal simplex - Optimal:  Objective =  4.8181818182e+00
Solution time =    0.00 sec.  Iterations = 0 (0)
Deterministic time = 0.00 ticks  (0.31 ticks/sec)


Variable Name           Solution Value
x1                            3.181818
x2                            1.636364

Log started (V20.1.0.0) Sun Aug  7 20:04:05 2022


Problem 'pd.lp' read.
Read time = 0.00 sec. (0.00 ticks)
Version identifier: 20.1.0.0 | 2020-11-10 | 9bedb6d68
Infeasibility row 'r1_1':  0 >= 1.
Presolve time = 0.00 sec. (0.00 ticks)
Presolve - Infeasible.
Solution time =    0.00 sec.
Deterministic time = 0.00 ticks  (0.25 ticks/sec)
